% Número total de personas
n = 150;

% Número de opiniones posibles
m = 3;

% Distribución inicial de personas por opinión
p = [78, 5, 67];

% Valores de las opiniones
v = [0.153, 0.398, 0.632];

% Costos extras al mover a opiniones vacías
ce = [1.771, 6.604, 6.070];

% Matriz de costos de mover de una opinión a otra
c = array2d(1..3, 1..3,
  [
    0.000,    5.017,    5.297,
    0.591,    0.000,    1.914,
    3.372,    1.728,    0.000
  ]);

% Costo total máximo permitido
ct = 18.370;

% Número máximo de movimientos permitidos
maxM = 9;
